c turning on binary mode checking
c parsing input formula with 259840 variables and 1039934 clauses
c finished parsing, read 3582047 bytes from proof file
c detected empty clause; start verification via backward checking
c 9866 of 1039934 clauses in core                            
c 3812 of 140222 lemmas in core using 222397 resolution steps
c 0 RAT lemmas in core; 1305 redundant literals in core lemmas
s VERIFIED
c verification time: 1.593 seconds
